MoS2                          
   3.1830000000000     
     1.0   0.000000000000000    0.0000000000000000
     0.0   6.3291139240499996   0.0000000000000000
     0.0000000000000000    0.0000000000000000   1.73205080757
MoS 
     2     4
Direct
  0.0  0.0776104589503532  0.0
  0.5  0.0776104589503532  0.5
  0.0  0.155220917900706   0.3333333333333333
  0.5  0.155220917900706   0.8333333333333333
  0.0  0.0                 0.3333333333333333
  0.5  0.0                 0.8333333333333333
