MoS2
   1.0
    12.7319999999999993    0.0000000000000000    0.0000000000000000
     0.0000000000000000   20.1455696202511483    0.0000000000000000
     0.0000000000000000    0.0000000000000000   11.0262354409906198
MoS
  16  32
Direct
                   0   0.077610458950353                   0
   0.250000000000000   0.077610458950353                   0
   0.500000000000000   0.077610458950353                   0
   0.750000000000000   0.077610458950353                   0
                   0   0.077610458950353   0.500000000000000
   0.250000000000000   0.077610458950353   0.500000000000000
   0.500000000000000   0.077610458950353   0.500000000000000
   0.750000000000000   0.077610458950353   0.500000000000000
   0.125000000000000   0.077610458950353   0.250000000000000
   0.375000000000000   0.077610458950353   0.250000000000000
   0.625000000000000   0.077610458950353   0.250000000000000
   0.875000000000000   0.077610458950353   0.250000000000000
   0.125000000000000   0.077610458950353   0.750000000000000
   0.375000000000000   0.077610458950353   0.750000000000000
   0.625000000000000   0.077610458950353   0.750000000000000
   0.875000000000000   0.077610458950353   0.750000000000000
                   0   0.155220917900706   0.166666666666667
   0.250000000000000   0.155220917900706   0.166666666666667
   0.500000000000000   0.155220917900706   0.166666666666667
   0.750000000000000   0.155220917900706   0.166666666666667
                   0   0.155220917900706   0.666666666666667
   0.250000000000000   0.155220917900706   0.666666666666667
   0.500000000000000   0.155220917900706   0.666666666666667
   0.750000000000000   0.155220917900706   0.666666666666667
   0.125000000000000   0.155220917900706   0.416666666666667
   0.375000000000000   0.155220917900706   0.416666666666667
   0.625000000000000   0.155220917900706   0.416666666666667
   0.875000000000000   0.155220917900706   0.416666666666667
   0.125000000000000   0.155220917900706   0.916666666666667
   0.375000000000000   0.155220917900706   0.916666666666667
   0.625000000000000   0.155220917900706   0.916666666666667
   0.875000000000000   0.155220917900706   0.916666666666667
                   0                   0   0.166666666666667
   0.250000000000000                   0   0.166666666666667
   0.500000000000000                   0   0.166666666666667
   0.750000000000000                   0   0.166666666666667
                   0                   0   0.666666666666667
   0.250000000000000                   0   0.666666666666667
   0.500000000000000                   0   0.666666666666667
   0.750000000000000                   0   0.666666666666667
   0.125000000000000                   0   0.416666666666667
   0.375000000000000                   0   0.416666666666667
   0.625000000000000                   0   0.416666666666667
   0.875000000000000                   0   0.416666666666667
   0.125000000000000                   0   0.916666666666667
   0.375000000000000                   0   0.916666666666667
   0.625000000000000                   0   0.916666666666667
   0.875000000000000                   0   0.916666666666667
